id: 16
name: L1_bts4
group: castro/L1
method: 1

Gurobi 7.0.2 (linux64, Matlab) logging started Tue 17 Apr 2018 15:05:09 BST


Gurobi 7.0.2 (linux64) logging started Tue Apr 17 15:05:09 2018

Optimize a model with 36310 rows, 73140 columns and 273824 nonzeros
Coefficient statistics:
  Matrix range     [1e+00, 1e+00]
  Objective range  [6e-08, 5e-01]
  Bounds range     [1e+00, 2e+07]
  RHS range        [0e+00, 0e+00]
Presolve removed 10881 rows and 3422 columns
Presolve time: 0.34s
Presolved: 25429 rows, 69718 columns, 181242 nonzeros

Iteration    Objective       Primal Inf.    Dual Inf.      Time
       0    1.7628040e+02   2.938477e+05   0.000000e+00      0s
   23931    2.6905197e+02   0.000000e+00   0.000000e+00      1s

Solved in 23931 iterations and 1.17 seconds
Optimal objective  2.690519653e+02
status: OPTIMAL
